Welcome to the CBC MILP Solver 
Version: 2.9.0 
Build Date: Feb 12 2015 

command line - C:\Users\zoria\miniconda3\envs\py37\lib\site-packages\pulp\apis\..\solverdir\cbc\win\64\cbc.exe C:\Users\zoria\AppData\Local\Temp\b339078e5ba94deab3be6f6610c9a601-pulp.mps DivingVectorlength on DivingSome on ratio 0.05 branch printingOptions all solution C:\Users\zoria\AppData\Local\Temp\b339078e5ba94deab3be6f6610c9a601-pulp.sol (default strategy 1)
At line 2 NAME          MODEL
At line 3 ROWS
At line 67996 COLUMNS
At line 599697 RHS
At line 667689 BOUNDS
At line 734220 ENDATA
Problem MODEL has 67991 rows, 66530 columns and 336872 elements
Coin0008I MODEL read with 0 errors
Option for DivingVectorLength changed from off to on
Option for DivingSome changed from off to on
ratioGap was changed from 0 to 0.05
Continuous objective value is -434985 - 0.78 seconds
Cgl0003I 0 fixed, 1232 tightened bounds, 234 strengthened rows, 0 substitutions
Cgl0003I 0 fixed, 144 tightened bounds, 9 strengthened rows, 0 substitutions
Cgl0003I 0 fixed, 0 tightened bounds, 6 strengthened rows, 0 substitutions
Cgl0003I 0 fixed, 0 tightened bounds, 1 strengthened rows, 0 substitutions
Cgl0004I processed model has 7312 rows, 11774 columns (11774 integer (6800 of which binary)) and 44423 elements
Cbc0038I Initial state - 474 integers unsatisfied sum - 50.4686
Cbc0038I Pass   1: (3.94 seconds) suminf.   25.49970 (391) obj. -390805 iterations 1184
Cbc0038I Pass   2: (3.97 seconds) suminf.   42.49974 (430) obj. -388730 iterations 183
Cbc0038I Pass   3: (3.99 seconds) suminf.   18.35980 (352) obj. -385050 iterations 156
Cbc0038I Pass   4: (4.02 seconds) suminf.   17.33970 (348) obj. -383836 iterations 90
Cbc0038I Pass   5: (4.04 seconds) suminf.   13.58447 (322) obj. -383960 iterations 131
Cbc0038I Pass   6: (4.06 seconds) suminf.   12.48960 (304) obj. -383631 iterations 149
Cbc0038I Pass   7: (4.07 seconds) suminf.   12.48960 (304) obj. -383631 iterations 2
Cbc0038I Pass   8: (4.11 seconds) suminf.   11.72990 (296) obj. -385544 iterations 158
Cbc0038I Pass   9: (4.12 seconds) suminf.   11.72990 (296) obj. -385544 iterations 0
Cbc0038I Pass  10: (4.14 seconds) suminf.   25.55990 (325) obj. -384656 iterations 104
Cbc0038I Pass  11: (4.15 seconds) suminf.   16.09990 (301) obj. -385291 iterations 38
Cbc0038I Pass  12: (4.20 seconds) suminf.   17.16270 (301) obj. -378603 iterations 228
Cbc0038I Pass  13: (4.22 seconds) suminf.   15.44277 (297) obj. -378506 iterations 31
Cbc0038I Pass  14: (4.26 seconds) suminf.   21.87000 (295) obj. -384724 iterations 209
Cbc0038I Pass  15: (4.29 seconds) suminf.   36.10717 (366) obj. -378680 iterations 112
Cbc0038I Pass  16: (4.30 seconds) suminf.   19.62000 (291) obj. -381165 iterations 68
Cbc0038I Pass  17: (4.32 seconds) suminf.   33.33217 (351) obj. -379241 iterations 66
Cbc0038I Pass  18: (4.34 seconds) suminf.   18.48000 (292) obj. -381128 iterations 85
Cbc0038I Pass  19: (4.36 seconds) suminf.   15.72000 (295) obj. -383563 iterations 27
Cbc0038I Pass  20: (4.39 seconds) suminf.    9.18000 (253) obj. -378356 iterations 196
Cbc0038I Pass  21: (4.41 seconds) suminf.   35.19000 (316) obj. -378898 iterations 57
Cbc0038I Pass  22: (4.43 seconds) suminf.    9.00000 (247) obj. -381220 iterations 77
Cbc0038I Pass  23: (4.45 seconds) suminf.   35.16000 (302) obj. -378853 iterations 80
Cbc0038I Pass  24: (4.47 seconds) suminf.    8.65000 (242) obj. -381197 iterations 98
Cbc0038I Pass  25: (4.49 seconds) suminf.   33.99205 (305) obj. -378275 iterations 99
Cbc0038I Pass  26: (4.51 seconds) suminf.   13.91000 (246) obj. -380189 iterations 100
Cbc0038I Pass  27: (4.53 seconds) suminf.   25.63000 (288) obj. -378458 iterations 61
Cbc0038I Pass  28: (4.55 seconds) suminf.   13.61000 (241) obj. -380065 iterations 70
Cbc0038I Pass  29: (4.57 seconds) suminf.   24.15000 (283) obj. -378440 iterations 59
Cbc0038I Pass  30: (4.59 seconds) suminf.   14.59000 (240) obj. -380287 iterations 91
Cbc0038I No solution found this major pass
Cbc0038I Before mini branch and bound, 10040 integers at bound fixed and 0 continuous of which 284 were internal integer and 0 internal continuous
Cbc0038I Mini branch and bound did not improve solution (4.61 seconds)
Cbc0038I After 4.61 seconds - Feasibility pump exiting - took 0.88 seconds
Cbc0031I 2244 added rows had average density of 9.0574866
Cbc0013I At root node, 2244 cuts changed objective from -434972.53 to -388069.03 in 20 passes
Cbc0014I Cut generator 0 (Probing) - 7266 row cuts average 2.3 elements, 0 column cuts (1468 active)  in 0.942 seconds - new frequency is 1
Cbc0014I Cut generator 1 (Gomory) - 941 row cuts average 100.7 elements, 0 column cuts (0 active)  in 8.919 seconds - new frequency is 1
Cbc0014I Cut generator 2 (Knapsack) - 751 row cuts average 4.0 elements, 0 column cuts (0 active)  in 0.397 seconds - new frequency is 1
Cbc0014I Cut generator 3 (Clique) - 0 row cuts average 0.0 elements, 0 column cuts (0 active)  in 0.079 seconds - new frequency is -100
Cbc0014I Cut generator 4 (MixedIntegerRounding2) - 838 row cuts average 22.0 elements, 0 column cuts (0 active)  in 0.219 seconds - new frequency is 1
Cbc0014I Cut generator 5 (FlowCover) - 652 row cuts average 4.6 elements, 0 column cuts (0 active)  in 0.231 seconds - new frequency is 1
Cbc0014I Cut generator 6 (TwoMirCuts) - 1419 row cuts average 79.0 elements, 0 column cuts (0 active)  in 2.775 seconds - new frequency is 1
Cbc0010I After 0 nodes, 1 on tree, 1e+050 best solution, best possible -388069.03 (39.19 seconds)
Cbc0010I After 100 nodes, 61 on tree, 1e+050 best solution, best possible -388069.03 (215.31 seconds)
Cbc0010I After 200 nodes, 102 on tree, 1e+050 best solution, best possible -388069.03 (340.51 seconds)
Cbc0010I After 300 nodes, 153 on tree, 1e+050 best solution, best possible -388069.03 (433.07 seconds)
Cbc0010I After 400 nodes, 198 on tree, 1e+050 best solution, best possible -388069.03 (534.90 seconds)
Cbc0010I After 500 nodes, 244 on tree, 1e+050 best solution, best possible -388069.03 (620.19 seconds)
Cbc0010I After 600 nodes, 276 on tree, 1e+050 best solution, best possible -388069.03 (644.45 seconds)
Cbc0010I After 700 nodes, 297 on tree, 1e+050 best solution, best possible -388069.03 (668.70 seconds)
Cbc0010I After 800 nodes, 328 on tree, 1e+050 best solution, best possible -388069.03 (683.97 seconds)
Cbc0010I After 900 nodes, 330 on tree, 1e+050 best solution, best possible -388069.03 (704.54 seconds)
Cbc0010I After 1000 nodes, 314 on tree, 1e+050 best solution, best possible -388069.03 (727.74 seconds)
Cbc0010I After 1100 nodes, 409 on tree, 1e+050 best solution, best possible -388003.98 (782.33 seconds)
Cbc0010I After 1200 nodes, 477 on tree, 1e+050 best solution, best possible -388003.98 (806.52 seconds)
Cbc0010I After 1300 nodes, 464 on tree, 1e+050 best solution, best possible -388003.98 (833.78 seconds)
Cbc0010I After 1400 nodes, 405 on tree, 1e+050 best solution, best possible -388003.98 (873.26 seconds)
Cbc0010I After 1500 nodes, 497 on tree, 1e+050 best solution, best possible -388003.98 (903.65 seconds)
Cbc0010I After 1600 nodes, 554 on tree, 1e+050 best solution, best possible -388003.98 (938.65 seconds)
Cbc0010I After 1700 nodes, 582 on tree, 1e+050 best solution, best possible -388003.98 (977.41 seconds)
Cbc0010I After 1800 nodes, 594 on tree, 1e+050 best solution, best possible -388003.98 (1008.16 seconds)
Cbc0010I After 1900 nodes, 566 on tree, 1e+050 best solution, best possible -388003.98 (1043.96 seconds)
Cbc0010I After 2000 nodes, 540 on tree, 1e+050 best solution, best possible -388003.98 (1081.93 seconds)
Cbc0010I After 2100 nodes, 527 on tree, 1e+050 best solution, best possible -388003.98 (1113.36 seconds)
Cbc0010I After 2200 nodes, 490 on tree, 1e+050 best solution, best possible -388003.98 (1149.87 seconds)
Cbc0010I After 2300 nodes, 482 on tree, 1e+050 best solution, best possible -388003.98 (1197.60 seconds)
Cbc0010I After 2400 nodes, 486 on tree, 1e+050 best solution, best possible -388003.98 (1225.36 seconds)
Cbc0010I After 2500 nodes, 454 on tree, 1e+050 best solution, best possible -388003.98 (1255.41 seconds)
Cbc0010I After 2600 nodes, 460 on tree, 1e+050 best solution, best possible -388003.98 (1282.95 seconds)
Cbc0010I After 2700 nodes, 451 on tree, 1e+050 best solution, best possible -388003.98 (1311.72 seconds)
Cbc0010I After 2800 nodes, 459 on tree, 1e+050 best solution, best possible -388003.98 (1338.64 seconds)
Cbc0010I After 2900 nodes, 455 on tree, 1e+050 best solution, best possible -388003.98 (1365.80 seconds)
Cbc0010I After 3000 nodes, 438 on tree, 1e+050 best solution, best possible -388003.98 (1414.09 seconds)
Cbc0010I After 3100 nodes, 444 on tree, 1e+050 best solution, best possible -388003.98 (1483.21 seconds)
Cbc0010I After 3200 nodes, 452 on tree, 1e+050 best solution, best possible -388003.98 (1549.12 seconds)
Cbc0010I After 3300 nodes, 428 on tree, 1e+050 best solution, best possible -388003.98 (1610.58 seconds)
Cbc0010I After 3400 nodes, 419 on tree, 1e+050 best solution, best possible -388003.98 (1687.92 seconds)
Cbc0010I After 3500 nodes, 501 on tree, 1e+050 best solution, best possible -388003.98 (1731.65 seconds)
Cbc0010I After 3600 nodes, 506 on tree, 1e+050 best solution, best possible -388003.98 (1782.35 seconds)
Cbc0010I After 3700 nodes, 489 on tree, 1e+050 best solution, best possible -388003.98 (1837.71 seconds)
Cbc0010I After 3800 nodes, 472 on tree, 1e+050 best solution, best possible -388003.98 (1898.36 seconds)
Cbc0010I After 3900 nodes, 489 on tree, 1e+050 best solution, best possible -388003.98 (1951.16 seconds)
Cbc0010I After 4000 nodes, 472 on tree, 1e+050 best solution, best possible -388003.98 (2011.13 seconds)
Cbc0010I After 4100 nodes, 463 on tree, 1e+050 best solution, best possible -388003.98 (2077.68 seconds)
Cbc0010I After 4200 nodes, 449 on tree, 1e+050 best solution, best possible -388003.98 (2158.34 seconds)
Cbc0010I After 4300 nodes, 416 on tree, 1e+050 best solution, best possible -388003.98 (2224.92 seconds)
Cbc0010I After 4400 nodes, 418 on tree, 1e+050 best solution, best possible -388003.98 (2290.49 seconds)
Cbc0010I After 4500 nodes, 404 on tree, 1e+050 best solution, best possible -388003.98 (2350.01 seconds)
Cbc0010I After 4600 nodes, 501 on tree, 1e+050 best solution, best possible -388003.98 (2461.54 seconds)
Cbc0010I After 4700 nodes, 581 on tree, 1e+050 best solution, best possible -388003.98 (2489.98 seconds)
Cbc0010I After 4800 nodes, 655 on tree, 1e+050 best solution, best possible -388003.98 (2502.14 seconds)
Cbc0010I After 4900 nodes, 641 on tree, 1e+050 best solution, best possible -388003.98 (2516.74 seconds)
Cbc0010I After 5000 nodes, 645 on tree, 1e+050 best solution, best possible -388003.98 (2542.34 seconds)
Cbc0010I After 5100 nodes, 743 on tree, 1e+050 best solution, best possible -387962.47 (2577.50 seconds)
Cbc0010I After 5200 nodes, 843 on tree, 1e+050 best solution, best possible -387962.47 (2593.67 seconds)
Cbc0010I After 5300 nodes, 942 on tree, 1e+050 best solution, best possible -387962.47 (2606.65 seconds)
Cbc0010I After 5400 nodes, 1037 on tree, 1e+050 best solution, best possible -387962.47 (2612.86 seconds)
Cbc0010I After 5500 nodes, 1137 on tree, 1e+050 best solution, best possible -387962.47 (2617.22 seconds)
Cbc0010I After 5600 nodes, 1237 on tree, 1e+050 best solution, best possible -387962.47 (2621.66 seconds)
Cbc0010I After 5700 nodes, 1337 on tree, 1e+050 best solution, best possible -387962.47 (2626.09 seconds)
Cbc0010I After 5800 nodes, 1437 on tree, 1e+050 best solution, best possible -387962.47 (2630.50 seconds)
Cbc0010I After 5900 nodes, 1537 on tree, 1e+050 best solution, best possible -387962.47 (2634.94 seconds)
Cbc0010I After 6000 nodes, 1637 on tree, 1e+050 best solution, best possible -387962.47 (2639.33 seconds)
Cbc0010I After 6100 nodes, 1737 on tree, 1e+050 best solution, best possible -387962.47 (2643.81 seconds)
Cbc0010I After 6200 nodes, 1837 on tree, 1e+050 best solution, best possible -387962.47 (2648.10 seconds)
Cbc0010I After 6300 nodes, 1937 on tree, 1e+050 best solution, best possible -387962.47 (2652.55 seconds)
Cbc0010I After 6400 nodes, 2037 on tree, 1e+050 best solution, best possible -387962.47 (2656.85 seconds)
Cbc0010I After 6500 nodes, 2137 on tree, 1e+050 best solution, best possible -387962.47 (2661.34 seconds)
Cbc0010I After 6600 nodes, 2237 on tree, 1e+050 best solution, best possible -387962.47 (2665.53 seconds)
Cbc0010I After 6700 nodes, 2337 on tree, 1e+050 best solution, best possible -387962.47 (2669.55 seconds)
Cbc0012I Integer solution of -317549.33 found by rounding after 3132241 iterations and 6730 nodes (2670.67 seconds)
Cbc0038I Full problem 7312 rows 11774 columns, reduced to 0 rows 0 columns
Cbc0038I Full problem 7312 rows 11774 columns, reduced to 640 rows 820 columns
Cbc0012I Integer solution of -350697.3 found by RINS after 3161300 iterations and 6800 nodes (2694.27 seconds)
Cbc0010I After 6800 nodes, 678 on tree, -350697.3 best solution, best possible -387962.47 (2695.06 seconds)
Cbc0010I After 6900 nodes, 720 on tree, -350697.3 best solution, best possible -387962.47 (2728.74 seconds)
Cbc0038I Full problem 7312 rows 11774 columns, reduced to 1115 rows 1203 columns
Cbc0012I Integer solution of -354935.65 found by RINS after 3236415 iterations and 7000 nodes (2768.13 seconds)
Cbc0010I After 7000 nodes, 634 on tree, -354935.65 best solution, best possible -387962.47 (2768.15 seconds)
Cbc0038I Full problem 7312 rows 11774 columns, reduced to 584 rows 691 columns
Cbc0012I Integer solution of -356325.14 found by RINS after 3273537 iterations and 7100 nodes (2803.57 seconds)
Cbc0010I After 7100 nodes, 605 on tree, -356325.14 best solution, best possible -387962.47 (2803.58 seconds)
Cbc0010I After 7200 nodes, 629 on tree, -356325.14 best solution, best possible -387962.47 (2847.98 seconds)
Cbc0038I Full problem 7312 rows 11774 columns, reduced to 962 rows 1028 columns
Cbc0012I Integer solution of -356694.51 found by RINS after 3359611 iterations and 7300 nodes (2887.89 seconds)
Cbc0010I After 7300 nodes, 655 on tree, -356694.51 best solution, best possible -387962.47 (2887.89 seconds)
Cbc0038I Full problem 7312 rows 11774 columns, reduced to 496 rows 566 columns
Cbc0010I After 7400 nodes, 694 on tree, -356694.51 best solution, best possible -387962.47 (2927.03 seconds)
Cbc0038I Full problem 7312 rows 11774 columns, reduced to 1026 rows 1107 columns
Cbc0012I Integer solution of -356737.37 found by RINS after 3440978 iterations and 7500 nodes (2964.00 seconds)
Cbc0010I After 7500 nodes, 743 on tree, -356737.37 best solution, best possible -387962.47 (2964.00 seconds)
Cbc0038I Full problem 7312 rows 11774 columns, reduced to 1011 rows 1084 columns
Cbc0012I Integer solution of -356779.86 found by RINS after 3484576 iterations and 7600 nodes (3006.69 seconds)
Cbc0010I After 7600 nodes, 778 on tree, -356779.86 best solution, best possible -387962.47 (3006.69 seconds)
Cbc0038I Full problem 7312 rows 11774 columns, reduced to 1482 rows 1575 columns
Cbc0012I Integer solution of -357074.42 found by RINS after 3542560 iterations and 7700 nodes (3061.89 seconds)
Cbc0010I After 7700 nodes, 799 on tree, -357074.42 best solution, best possible -387962.47 (3061.89 seconds)
Cbc0038I Full problem 7312 rows 11774 columns, reduced to 1065 rows 1123 columns
Cbc0012I Integer solution of -357213.73 found by RINS after 3593554 iterations and 7800 nodes (3109.24 seconds)
Cbc0010I After 7800 nodes, 828 on tree, -357213.73 best solution, best possible -387962.47 (3109.25 seconds)
Cbc0038I Full problem 7312 rows 11774 columns, reduced to 517 rows 635 columns
Cbc0012I Integer solution of -357297.72 found by RINS after 3632831 iterations and 7900 nodes (3150.36 seconds)
Cbc0010I After 7900 nodes, 866 on tree, -357297.72 best solution, best possible -387962.47 (3150.36 seconds)
Cbc0038I Full problem 7312 rows 11774 columns, reduced to 457 rows 542 columns
Cbc0010I After 8000 nodes, 911 on tree, -357297.72 best solution, best possible -387962.47 (3190.32 seconds)
Cbc0038I Full problem 7312 rows 11774 columns, reduced to 998 rows 1063 columns
Cbc0010I After 8100 nodes, 958 on tree, -357297.72 best solution, best possible -387962.47 (3229.32 seconds)
Cbc0038I Full problem 7312 rows 11774 columns, reduced to 1022 rows 1117 columns
Cbc0010I After 8200 nodes, 1000 on tree, -357297.72 best solution, best possible -387962.47 (3267.11 seconds)
Cbc0038I Full problem 7312 rows 11774 columns, reduced to 1090 rows 1150 columns
Cbc0012I Integer solution of -357421.68 found by RINS after 3784900 iterations and 8300 nodes (3309.29 seconds)
Cbc0010I After 8300 nodes, 1036 on tree, -357421.68 best solution, best possible -387962.47 (3309.30 seconds)
Cbc0038I Full problem 7312 rows 11774 columns, reduced to 588 rows 736 columns
Cbc0012I Integer solution of -357557.88 found by RINS after 3832070 iterations and 8400 nodes (3352.09 seconds)
Cbc0010I After 8400 nodes, 1066 on tree, -357557.88 best solution, best possible -387962.47 (3352.09 seconds)
Cbc0038I Full problem 7312 rows 11774 columns, reduced to 1075 rows 1190 columns
Cbc0012I Integer solution of -357746.71 found by RINS after 3872838 iterations and 8500 nodes (3392.08 seconds)
Cbc0010I After 8500 nodes, 1105 on tree, -357746.71 best solution, best possible -387962.47 (3392.08 seconds)
Cbc0038I Full problem 7312 rows 11774 columns, reduced to 1025 rows 1101 columns
Cbc0012I Integer solution of -357773.63 found by RINS after 3922440 iterations and 8600 nodes (3438.45 seconds)
Cbc0010I After 8600 nodes, 1142 on tree, -357773.63 best solution, best possible -387962.47 (3438.45 seconds)
Cbc0038I Full problem 7312 rows 11774 columns, reduced to 1220 rows 1279 columns
Cbc0012I Integer solution of -357799.38 found by RINS after 3969276 iterations and 8700 nodes (3483.24 seconds)
Cbc0010I After 8700 nodes, 1182 on tree, -357799.38 best solution, best possible -387962.47 (3483.24 seconds)
Cbc0038I Full problem 7312 rows 11774 columns, reduced to 576 rows 649 columns
Cbc0010I After 8800 nodes, 1221 on tree, -357799.38 best solution, best possible -387962.47 (3530.16 seconds)
Cbc0038I Full problem 7312 rows 11774 columns, reduced to 477 rows 564 columns
Cbc0012I Integer solution of -357818.73 found by RINS after 4066481 iterations and 8900 nodes (3571.32 seconds)
Cbc0010I After 8900 nodes, 1257 on tree, -357818.73 best solution, best possible -387962.47 (3571.32 seconds)
Cbc0010I After 9000 nodes, 1295 on tree, -357818.73 best solution, best possible -387962.47 (3606.59 seconds)
Cbc0038I Full problem 7312 rows 11774 columns, reduced to 1477 rows 1717 columns
Cbc0012I Integer solution of -359765.42 found by RINS after 4137283 iterations and 9100 nodes (3659.58 seconds)
Cbc0010I After 9100 nodes, 1363 on tree, -359765.42 best solution, best possible -387962.47 (3659.59 seconds)
Cbc0038I Full problem 7312 rows 11774 columns, reduced to 1192 rows 1241 columns
Cbc0012I Integer solution of -362086.2 found by RINS after 4188962 iterations and 9200 nodes (3707.85 seconds)
Cbc0010I After 9200 nodes, 1357 on tree, -362086.2 best solution, best possible -387962.47 (3707.86 seconds)
Cbc0038I Full problem 7312 rows 11774 columns, reduced to 1298 rows 1351 columns
Cbc0012I Integer solution of -362274.76 found by RINS after 4243417 iterations and 9300 nodes (3757.78 seconds)
Cbc0010I After 9300 nodes, 1382 on tree, -362274.76 best solution, best possible -387962.47 (3757.78 seconds)
Cbc0038I Full problem 7312 rows 11774 columns, reduced to 441 rows 513 columns
Cbc0012I Integer solution of -362518.91 found by RINS after 4296948 iterations and 9400 nodes (3808.04 seconds)
Cbc0010I After 9400 nodes, 1411 on tree, -362518.91 best solution, best possible -387962.47 (3808.04 seconds)
Cbc0038I Full problem 7312 rows 11774 columns, reduced to 1023 rows 1066 columns
Cbc0012I Integer solution of -362537.43 found by RINS after 4350526 iterations and 9500 nodes (3861.78 seconds)
Cbc0010I After 9500 nodes, 1449 on tree, -362537.43 best solution, best possible -387962.47 (3861.78 seconds)
Cbc0038I Full problem 7312 rows 11774 columns, reduced to 1058 rows 1165 columns
Cbc0012I Integer solution of -362565.52 found by RINS after 4399644 iterations and 9600 nodes (3907.74 seconds)
Cbc0010I After 9600 nodes, 1485 on tree, -362565.52 best solution, best possible -387962.47 (3907.74 seconds)
Cbc0038I Full problem 7312 rows 11774 columns, reduced to 976 rows 971 columns
Cbc0012I Integer solution of -362643.68 found by RINS after 4454067 iterations and 9700 nodes (3955.30 seconds)
Cbc0010I After 9700 nodes, 1516 on tree, -362643.68 best solution, best possible -387962.47 (3955.30 seconds)
Cbc0038I Full problem 7312 rows 11774 columns, reduced to 566 rows 696 columns
Cbc0012I Integer solution of -362700.68 found by RINS after 4503537 iterations and 9800 nodes (4003.56 seconds)
Cbc0010I After 9800 nodes, 1558 on tree, -362700.68 best solution, best possible -387962.47 (4003.56 seconds)
Cbc0038I Full problem 7312 rows 11774 columns, reduced to 1009 rows 1056 columns
Cbc0010I After 9900 nodes, 1602 on tree, -362700.68 best solution, best possible -387962.47 (4051.25 seconds)
Cbc0038I Full problem 7312 rows 11774 columns, reduced to 1073 rows 1181 columns
Cbc0012I Integer solution of -362800.9 found by RINS after 4604292 iterations and 10000 nodes (4098.84 seconds)
Cbc0010I After 10000 nodes, 1643 on tree, -362800.9 best solution, best possible -387962.47 (4098.84 seconds)
Cbc0038I Full problem 7312 rows 11774 columns, reduced to 426 rows 526 columns
Cbc0012I Integer solution of -362989.81 found by RINS after 4645713 iterations and 10100 nodes (4139.53 seconds)
Cbc0010I After 10100 nodes, 1675 on tree, -362989.81 best solution, best possible -387962.47 (4139.53 seconds)
Cbc0038I Full problem 7312 rows 11774 columns, reduced to 1230 rows 1312 columns
Cbc0012I Integer solution of -363071.69 found by RINS after 4693350 iterations and 10200 nodes (4186.13 seconds)
Cbc0010I After 10200 nodes, 1715 on tree, -363071.69 best solution, best possible -387962.47 (4186.13 seconds)
Cbc0010I After 10300 nodes, 1754 on tree, -363071.69 best solution, best possible -387962.47 (4230.51 seconds)
Cbc0038I Full problem 7312 rows 11774 columns, reduced to 902 rows 900 columns
Cbc0010I After 10400 nodes, 1793 on tree, -363071.69 best solution, best possible -387962.47 (4272.15 seconds)
Cbc0038I Full problem 7312 rows 11774 columns, reduced to 518 rows 620 columns
Cbc0012I Integer solution of -363093.67 found by RINS after 4828458 iterations and 10500 nodes (4314.22 seconds)
Cbc0010I After 10500 nodes, 1830 on tree, -363093.67 best solution, best possible -387962.47 (4314.22 seconds)
Cbc0038I Full problem 7312 rows 11774 columns, reduced to 909 rows 961 columns
Cbc0012I Integer solution of -363190.65 found by RINS after 4869383 iterations and 10600 nodes (4353.43 seconds)
Cbc0010I After 10600 nodes, 1867 on tree, -363190.65 best solution, best possible -387962.47 (4353.43 seconds)
Cbc0038I Full problem 7312 rows 11774 columns, reduced to 1029 rows 1109 columns
Cbc0012I Integer solution of -363341.55 found by RINS after 4926954 iterations and 10700 nodes (4409.96 seconds)
Cbc0010I After 10700 nodes, 1907 on tree, -363341.55 best solution, best possible -387962.47 (4409.96 seconds)
Cbc0038I Full problem 7312 rows 11774 columns, reduced to 480 rows 548 columns
Cbc0012I Integer solution of -363348.72 found by RINS after 4961917 iterations and 10800 nodes (4446.43 seconds)
Cbc0010I After 10800 nodes, 1947 on tree, -363348.72 best solution, best possible -387962.47 (4446.43 seconds)
Cbc0038I Full problem 7312 rows 11774 columns, reduced to 472 rows 540 columns
Cbc0010I After 10900 nodes, 1987 on tree, -363348.72 best solution, best possible -387962.47 (4494.73 seconds)
Cbc0038I Full problem 7312 rows 11774 columns, reduced to 476 rows 554 columns
Cbc0010I After 11000 nodes, 2030 on tree, -363348.72 best solution, best possible -387962.47 (4538.71 seconds)
Cbc0038I Full problem 7312 rows 11774 columns, reduced to 1753 rows 2136 columns
Cbc0012I Integer solution of -365202.58 found by RINS after 5170332 iterations and 11100 nodes (4687.74 seconds)
Cbc0010I After 11100 nodes, 2049 on tree, -365202.58 best solution, best possible -387112.09 (4687.75 seconds)
Cbc0038I Full problem 7312 rows 11774 columns, reduced to 491 rows 630 columns
Cbc0012I Integer solution of -365506.65 found by RINS after 5256388 iterations and 11200 nodes (4775.88 seconds)
Cbc0010I After 11200 nodes, 2085 on tree, -365506.65 best solution, best possible -387112.09 (4775.89 seconds)
Cbc0038I Full problem 7312 rows 11774 columns, reduced to 567 rows 696 columns
Cbc0012I Integer solution of -365515.45 found by RINS after 5321136 iterations and 11300 nodes (4838.62 seconds)
Cbc0010I After 11300 nodes, 2123 on tree, -365515.45 best solution, best possible -387112.09 (4838.62 seconds)
Cbc0038I Full problem 7312 rows 11774 columns, reduced to 604 rows 748 columns
Cbc0012I Integer solution of -365743.57 found by RINS after 5383147 iterations and 11400 nodes (4909.54 seconds)
Cbc0010I After 11400 nodes, 2170 on tree, -365743.57 best solution, best possible -387112.09 (4909.55 seconds)
Cbc0038I Full problem 7312 rows 11774 columns, reduced to 510 rows 623 columns
Cbc0010I After 11500 nodes, 2219 on tree, -365743.57 best solution, best possible -387112.09 (4979.62 seconds)
Cbc0038I Full problem 7312 rows 11774 columns, reduced to 1167 rows 1342 columns
Cbc0012I Integer solution of -365766.56 found by RINS after 5516999 iterations and 11600 nodes (5056.48 seconds)
Cbc0010I After 11600 nodes, 2262 on tree, -365766.56 best solution, best possible -387112.09 (5056.48 seconds)
Cbc0010I After 11700 nodes, 2300 on tree, -365766.56 best solution, best possible -387112.09 (5106.79 seconds)
Cbc0038I Full problem 7312 rows 11774 columns, reduced to 592 rows 737 columns
Cbc0012I Integer solution of -365768.72 found by RINS after 5626208 iterations and 11800 nodes (5169.74 seconds)
Cbc0010I After 11800 nodes, 2343 on tree, -365768.72 best solution, best possible -387112.09 (5169.74 seconds)
Cbc0038I Full problem 7312 rows 11774 columns, reduced to 513 rows 657 columns
Cbc0012I Integer solution of -365807.39 found by RINS after 5672762 iterations and 11900 nodes (5217.13 seconds)
Cbc0010I After 11900 nodes, 2385 on tree, -365807.39 best solution, best possible -387112.09 (5217.13 seconds)
Cbc0038I Full problem 7312 rows 11774 columns, reduced to 569 rows 736 columns
Cbc0010I After 12000 nodes, 2428 on tree, -365807.39 best solution, best possible -387112.09 (5254.93 seconds)
Cbc0038I Full problem 7312 rows 11774 columns, reduced to 979 rows 1380 columns
Cbc0010I After 12100 nodes, 2475 on tree, -365807.39 best solution, best possible -386467.78 (5384.70 seconds)
Cbc0038I Full problem 7312 rows 11774 columns, reduced to 780 rows 1018 columns
Cbc0010I After 12200 nodes, 2512 on tree, -365807.39 best solution, best possible -386211.77 (5539.89 seconds)
Cbc0038I Full problem 7312 rows 11774 columns, reduced to 1714 rows 2077 columns
Cbc0012I Integer solution of -365884.06 found by RINS after 6178381 iterations and 12300 nodes (5684.23 seconds)
Cbc0010I After 12300 nodes, 2550 on tree, -365884.06 best solution, best possible -385934.75 (5684.23 seconds)
Cbc0038I Full problem 7312 rows 11774 columns, reduced to 1390 rows 1524 columns
Cbc0010I After 12400 nodes, 2601 on tree, -365884.06 best solution, best possible -385934.75 (5769.86 seconds)
Cbc0038I Full problem 7312 rows 11774 columns, reduced to 1588 rows 1835 columns
Cbc0012I Integer solution of -365907.89 found by RINS after 6341931 iterations and 12500 nodes (5859.50 seconds)
Cbc0010I After 12500 nodes, 2648 on tree, -365907.89 best solution, best possible -385934.75 (5859.50 seconds)
Cbc0038I Full problem 7312 rows 11774 columns, reduced to 679 rows 802 columns
Cbc0010I After 12600 nodes, 2694 on tree, -365907.89 best solution, best possible -385934.75 (5953.16 seconds)
Cbc0038I Full problem 7312 rows 11774 columns, reduced to 788 rows 1055 columns
Cbc0012I Integer solution of -365970.44 found by RINS after 6515547 iterations and 12700 nodes (6028.82 seconds)
Cbc0010I After 12700 nodes, 2738 on tree, -365970.44 best solution, best possible -385934.75 (6028.82 seconds)
Cbc0038I Full problem 7312 rows 11774 columns, reduced to 857 rows 1111 columns
Cbc0012I Integer solution of -365988.73 found by RINS after 6600259 iterations and 12800 nodes (6113.81 seconds)
Cbc0010I After 12800 nodes, 2784 on tree, -365988.73 best solution, best possible -385934.75 (6113.81 seconds)
Cbc0038I Full problem 7312 rows 11774 columns, reduced to 1381 rows 1500 columns
Cbc0012I Integer solution of -366002.91 found by RINS after 6685855 iterations and 12900 nodes (6198.03 seconds)
Cbc0010I After 12900 nodes, 2827 on tree, -366002.91 best solution, best possible -385934.75 (6198.03 seconds)
Cbc0038I Full problem 7312 rows 11774 columns, reduced to 716 rows 991 columns
Cbc0012I Integer solution of -366026.27 found by RINS after 6759288 iterations and 13000 nodes (6278.01 seconds)
Cbc0010I After 13000 nodes, 2877 on tree, -366026.27 best solution, best possible -385934.75 (6278.02 seconds)
Cbc0010I After 13100 nodes, 2966 on tree, -366026.27 best solution, best possible -385934.75 (6320.94 seconds)
Cbc0038I Full problem 7312 rows 11774 columns, reduced to 1263 rows 1552 columns
Cbc0012I Integer solution of -366292.31 found by RINS after 6835490 iterations and 13200 nodes (6367.49 seconds)
Cbc0010I After 13200 nodes, 2945 on tree, -366292.31 best solution, best possible -385934.75 (6367.49 seconds)
Cbc0038I Full problem 7312 rows 11774 columns, reduced to 561 rows 652 columns
Cbc0012I Integer solution of -367044.31 found by RINS after 6903808 iterations and 13300 nodes (6439.87 seconds)
Cbc0010I After 13300 nodes, 2976 on tree, -367044.31 best solution, best possible -385934.75 (6439.88 seconds)
Cbc0011I Exiting as integer gap of 18890.441 less than 1e-010 or 5%
Cbc0001I Search completed - best objective -367044.3111056276, took 6903982 iterations and 13301 nodes (6440.46 seconds)
Cbc0032I Strong branching done 19978 times (126899 iterations), fathomed 33 nodes and fixed 26 variables
Cbc0035I Maximum depth 1727, 24520 variables fixed on reduced cost
Cuts at root node changed objective from -434973 to -388069
Probing was tried 22709 times and created 1462373 cuts of which 1546 were active after adding rounds of cuts (472.356 seconds)
Gomory was tried 22308 times and created 87389 cuts of which 28 were active after adding rounds of cuts (1392.221 seconds)
Knapsack was tried 22311 times and created 35740 cuts of which 2 were active after adding rounds of cuts (377.454 seconds)
Clique was tried 20 times and created 0 cuts of which 0 were active after adding rounds of cuts (0.079 seconds)
MixedIntegerRounding2 was tried 22311 times and created 136066 cuts of which 17 were active after adding rounds of cuts (175.676 seconds)
FlowCover was tried 22311 times and created 1985 cuts of which 0 were active after adding rounds of cuts (7.322 seconds)
TwoMirCuts was tried 22308 times and created 16670 cuts of which 5 were active after adding rounds of cuts (178.042 seconds)
ImplicationCuts was tried 842 times and created 98491 cuts of which 0 were active after adding rounds of cuts (1.481 seconds)

Result - Optimal solution found (within gap tolerance)

Objective value:                -367044.31110563
Lower bound:                    -385934.752
Gap:                            0.05
Enumerated nodes:               13301
Total iterations:               6903982
Time (CPU seconds):             6444.13
Time (Wallclock seconds):       6444.13

Option for printingOptions changed from normal to all
Total time (CPU seconds):       6445.09   (Wallclock seconds):       6445.09

